
Gurobi 10.0.2 (linux64) logging started Thu Sep  7 10:02:50 2023

Set parameter LogFile to value "../surrogate_problem/log/surrogate2_18.log"
Set parameter Threads to value 30
Gurobi Optimizer version 10.0.2 build v10.0.2rc0 (linux64)

CPU model: Intel(R) Xeon(R) Platinum 8280 CPU @ 2.70GHz, instruction set [SSE2|AVX|AVX2|AVX512]
Thread count: 112 physical cores, 112 logical processors, using up to 30 threads

Optimize a model with 574 rows, 1876 columns and 225716 nonzeros
Model fingerprint: 0xb4d58618
Variable types: 321 continuous, 1555 integer (1555 binary)
Coefficient statistics:
  Matrix range     [6e-08, 1e+05]
  Objective range  [5e-01, 4e+01]
  Bounds range     [1e+00, 1e+00]
  RHS range        [3e-02, 1e+05]
Warning: Model contains large matrix coefficient range
         Consider reformulating model or setting NumericFocus parameter
         to avoid numerical issues.
Found heuristic solution: objective 239548.36098
Presolve removed 274 rows and 274 columns
Presolve time: 0.16s
Presolved: 300 rows, 1602 columns, 93189 nonzeros
Variable types: 138 continuous, 1464 integer (1464 binary)

Root relaxation: objective 1.919013e+05, 174 iterations, 0.01 seconds (0.01 work units)

    Nodes    |    Current Node    |     Objective Bounds      |     Work
 Expl Unexpl |  Obj  Depth IntInf | Incumbent    BestBd   Gap | It/Node Time

     0     0 191901.325    0   12 239548.361 191901.325  19.9%     -    0s
H    0     0                    191901.45099 191901.325  0.00%     -    0s
     0     0 191901.325    0   12 191901.451 191901.325  0.00%     -    0s

Explored 1 nodes (174 simplex iterations) in 0.25 seconds (0.21 work units)
Thread count was 30 (of 112 available processors)

Solution count 2: 191901 239548 

Optimal solution found (tolerance 1.00e-04)
Best objective 1.919014509929e+05, best bound 1.919014509929e+05, gap 0.0000%

Gurobi 10.0.2 (linux64) logging started Fri Sep  8 15:13:19 2023

Set parameter LogFile to value "../surrogate_problem/log/surrogate2_18.log"
Gurobi Optimizer version 10.0.2 build v10.0.2rc0 (linux64)

CPU model: Intel(R) Xeon(R) Platinum 8280 CPU @ 2.70GHz, instruction set [SSE2|AVX|AVX2|AVX512]
Thread count: 112 physical cores, 112 logical processors, using up to 30 threads

Optimize a model with 574 rows, 1876 columns and 225716 nonzeros
Model fingerprint: 0xb4d58618
Variable types: 321 continuous, 1555 integer (1555 binary)
Coefficient statistics:
  Matrix range     [6e-08, 1e+05]
  Objective range  [5e-01, 4e+01]
  Bounds range     [1e+00, 1e+00]
  RHS range        [3e-02, 1e+05]
Warning: Model contains large matrix coefficient range
         Consider reformulating model or setting NumericFocus parameter
         to avoid numerical issues.
Found heuristic solution: objective 239548.36098
Presolve removed 274 rows and 274 columns
Presolve time: 0.16s
Presolved: 300 rows, 1602 columns, 93189 nonzeros
Variable types: 138 continuous, 1464 integer (1464 binary)

Root relaxation: objective 1.919013e+05, 174 iterations, 0.01 seconds (0.01 work units)

    Nodes    |    Current Node    |     Objective Bounds      |     Work
 Expl Unexpl |  Obj  Depth IntInf | Incumbent    BestBd   Gap | It/Node Time

     0     0 191901.325    0   12 239548.361 191901.325  19.9%     -    0s
H    0     0                    191901.45099 191901.325  0.00%     -    0s
     0     0 191901.325    0   12 191901.451 191901.325  0.00%     -    0s

Explored 1 nodes (174 simplex iterations) in 0.28 seconds (0.21 work units)
Thread count was 30 (of 112 available processors)

Solution count 2: 191901 239548 

Optimal solution found (tolerance 1.00e-04)
Best objective 1.919014509929e+05, best bound 1.919014509929e+05, gap 0.0000%
